Function: get_partitions took 2.09808349609375e-05 seconds
Function: map_flows_partitions took 2.86102294921875e-06 seconds
Building model with:
2 devices, 3 partitions and 1 flows
Using license file /home/anup/gurobi.lic
Academic license - for non-commercial use only
Function: MIP.add_frac_mem_var took 0.00030231475830078125 seconds
Function: MIP.add_coverage_constraints took 0.00019788742065429688 seconds
Function: MIP.add_accuracy_constraints took 0.0001590251922607422 seconds
Function: MIP.add_capacity_constraints took 0.00026726722717285156 seconds
Changed value of parameter TimeLimit to 120.0
   Prev: inf  Min: 0.0  Max: inf  Default: inf
--------------------------------------------------
Starting model update
Model update took: 6.866455078125e-05 s
--------------------------------------------------
Starting model optimize
Gurobi Optimizer version 9.0.0 build v9.0.0rc2 (linux64)
Optimize a model with 14 rows, 18 columns and 37 nonzeros
Model fingerprint: 0xafab907d
Model has 1 general constraint
Variable types: 18 continuous, 0 integer (0 binary)
Coefficient statistics:
  Matrix range     [1e+00, 2e+00]
  Objective range  [1e+00, 1e+00]
  Bounds range     [1e+00, 3e+04]
  RHS range        [1e+00, 1e+00]

---------------------------------------------------------------------------
Multi-objectives: starting optimization with 2 objectives ... 
---------------------------------------------------------------------------

Multi-objectives: applying initial presolve ...
---------------------------------------------------------------------------

Presolve removed 5 rows and 6 columns
Presolve time: 0.00s
Presolved: 9 rows and 12 columns
---------------------------------------------------------------------------

Multi-objectives: optimize objective 1 (max_mem) ...
---------------------------------------------------------------------------

Presolve removed 5 rows and 7 columns
Presolve time: 0.00s
Presolved: 4 rows, 5 columns, 10 nonzeros
Variable types: 4 continuous, 1 integer (1 binary)

Root relaxation: objective 2.548828e+00, 2 iterations, 0.00 seconds

    Nodes    |    Current Node    |     Objective Bounds      |     Work
 Expl Unexpl |  Obj  Depth IntInf | Incumbent    BestBd   Gap | It/Node Time

*    0     0               0       2.5488281    2.54883  0.00%     -    0s

Explored 0 nodes (2 simplex iterations) in 0.00 seconds
Thread count was 8 (of 8 available processors)

Solution count 1: 2.54883 

Optimal solution found (tolerance 1.00e-04)
Best objective 2.548828125000e+00, best bound 2.548828125000e+00, gap 0.0000%
---------------------------------------------------------------------------

Multi-objectives: optimize objective 2 (tot_mem) ...
---------------------------------------------------------------------------


Loaded user MIP start with objective 5.09766

Presolve removed 5 rows and 7 columns
Presolve time: 0.00s
Presolved: 5 rows, 5 columns, 12 nonzeros
Variable types: 4 continuous, 1 integer (1 binary)

Root relaxation: cutoff, 0 iterations, 0.00 seconds

Explored 0 nodes (0 simplex iterations) in 0.00 seconds
Thread count was 8 (of 8 available processors)

Solution count 1: 5.09766 

Optimal solution found (tolerance 1.00e-04)
Best objective 5.097656250000e+00, best bound 5.097656250000e+00, gap 0.0000%

---------------------------------------------------------------------------
Multi-objectives: solved in 0.00 seconds, solution count 1

Model optimize took: 0.003231525421142578 seconds
--------------------------------------------------

Solution quality statistics for model Univmon :
  Maximum violation:
    Bound       : 0.00000000e+00
    Constraint  : 0.00000000e+00
    Integrality : 0.00000000e+00

Sketch (0) (cm: eps0: 0.00625, del0: 0.05, min_mem: 1.69921875)
Par: 1, Rows: 1
(0.500,0)    (0.500,1)    
Total frac: 1.000
Par: 2, Rows: 1
(0.500,0)    (0.500,1)    
Total frac: 1.000
Par: 3, Rows: 1
(0.500,1)    (0.500,0)    
Total frac: 1.000

Device (0) CPU_1:
Rows total: 1.5
Mem total: 2.548828125

Device (1) P4_1:
Rows total: 1.5
Mem total: 2.548828125
--------------------------------------------------
Changed value of parameter NonConvex to 2
   Prev: -1  Min: -1  Max: 2  Default: -1

Throughput: 93.33333333333333 Mpps, ns per packet: 10.714285714285715
Resources: 70.42841172218321
Used Cores: 6.999999999999998, Total CPUS: 1, Switch Memory: 2.548828125

Sketch (0) (cm: eps0: 0.00625, del0: 0.05, min_mem: 1.69921875)
Par: 1, Rows: 1
(0.500,0)    (0.500,1)    
Total frac: 1.000
Par: 2, Rows: 1
(0.500,0)    (0.500,1)    
Total frac: 1.000
Par: 3, Rows: 1
(0.500,1)    (0.500,0)    
Total frac: 1.000

Device (0) CPU_1:
cores_sketch: 1.0, cores_dpdk: 5.999999999999998
Rows total: 1.5
Mem total: 2.548828125
Throughput: 93.33333333333333

Device (1) P4_1:
Rows total: 1.5
Mem total: 2.548828125
Throughput: 148.0
--------------------------------------------------
Function: MIP.solve took 0.016527175903320312 seconds
Function: solve took 0.01678013801574707 seconds
